<?xml version="1.0" encoding="UTF-8"?><osil xmlns="os.optimizationservices.org"   xmlns:xsi="http://www.w3.org/2001/XMLSchema-instance" xsi:schemaLocation="os.optimizationservices.org http://www.optimizationservices.org/schemas/2.0/OSiL.xsd" ><instanceHeader><name>q_30_0_50_4</name></instanceHeader><instanceData><variables numberOfVariables="30"><var name="x1" ub="1"/><var name="x2" ub="1"/><var name="x3" ub="1"/><var name="x4" ub="1"/><var name="x5" ub="1"/><var name="x6" ub="1"/><var name="x7" ub="1"/><var name="x8" ub="1"/><var name="x9" ub="1"/><var name="x10" ub="1"/><var name="x11" ub="1"/><var name="x12" ub="1"/><var name="x13" ub="1"/><var name="x14" ub="1"/><var name="x15" ub="1"/><var name="x16" ub="1"/><var name="x17" ub="1"/><var name="x18" ub="1"/><var name="x19" ub="1"/><var name="x20" ub="1"/><var name="x21" ub="1"/><var name="x22" ub="1"/><var name="x23" ub="1"/><var name="x24" ub="1"/><var name="x25" ub="1"/><var name="x26" ub="1"/><var name="x27" ub="1"/><var name="x28" ub="1"/><var name="x29" ub="1"/><var name="x30" ub="1"/></variables><objectives numberOfObjectives="1"><obj maxOrMin="min" name="defObj_x31" numberOfObjCoef="30"><coef idx="0">-.5633</coef><coef idx="1">-9.91e-2</coef><coef idx="2">-2.1e-3</coef><coef idx="3">-.2952</coef><coef idx="4">-.5508</coef><coef idx="5">-.1529</coef><coef idx="6">5.26e-2</coef><coef idx="7">.9086</coef><coef idx="8">.5866</coef><coef idx="9">-.8777</coef><coef idx="10">1.81e-2</coef><coef idx="11">.2463</coef><coef idx="12">.1697</coef><coef idx="13">-.9148</coef><coef idx="14">.4976</coef><coef idx="15">-.7257</coef><coef idx="16">-.5447</coef><coef idx="17">-.3333</coef><coef idx="18">.7602</coef><coef idx="19">-.6432</coef><coef idx="20">.4335</coef><coef idx="21">.6657</coef><coef idx="22">-.3522</coef><coef idx="23">-.3207</coef><coef idx="24">-.9375</coef><coef idx="25">-.2883</coef><coef idx="26">-.313</coef><coef idx="27">-.8875</coef><coef idx="28">-.4723</coef><coef idx="29">.6583</coef></obj></objectives><quadraticCoefficients  numberOfQuadraticTerms="232" ><qTerm  idx="-1"  idxOne="0"  idxTwo="1"  coef="-1.3423"/><qTerm  idx="-1"  idxOne="0"  idxTwo="2"  coef=".1669"/><qTerm  idx="-1"  idxOne="0"  idxTwo="3"  coef="-1.2563"/><qTerm  idx="-1"  idxOne="0"  idxTwo="15"  coef="-.9723"/><qTerm  idx="-1"  idxOne="0"  idxTwo="18"  coef="-.6163"/><qTerm  idx="-1"  idxOne="0"  idxTwo="19"  coef="-1.6124"/><qTerm  idx="-1"  idxOne="0"  idxTwo="21"  coef=".9162"/><qTerm  idx="-1"  idxOne="0"  idxTwo="22"  coef="-1.5053"/><qTerm  idx="-1"  idxOne="0"  idxTwo="23"  coef="-1.2237"/><qTerm  idx="-1"  idxOne="0"  idxTwo="24"  coef="-1.6479"/><qTerm  idx="-1"  idxOne="0"  idxTwo="26"  coef="-.2668"/><qTerm  idx="-1"  idxOne="0"  idxTwo="27"  coef=".6881"/><qTerm  idx="-1"  idxOne="0"  idxTwo="28"  coef="-1.4283"/><qTerm  idx="-1"  idxOne="1"  idxTwo="1"  coef=".8115"/><qTerm  idx="-1"  idxOne="1"  idxTwo="3"  coef=".9774"/><qTerm  idx="-1"  idxOne="1"  idxTwo="4"  coef="1.0702"/><qTerm  idx="-1"  idxOne="1"  idxTwo="5"  coef="-.239"/><qTerm  idx="-1"  idxOne="1"  idxTwo="6"  coef=".9385"/><qTerm  idx="-1"  idxOne="1"  idxTwo="7"  coef="1.3386"/><qTerm  idx="-1"  idxOne="1"  idxTwo="10"  coef=".3357"/><qTerm  idx="-1"  idxOne="1"  idxTwo="11"  coef=".8412"/><qTerm  idx="-1"  idxOne="1"  idxTwo="12"  coef="-1.2281"/><qTerm  idx="-1"  idxOne="1"  idxTwo="14"  coef=".9888"/><qTerm  idx="-1"  idxOne="1"  idxTwo="15"  coef=".6401"/><qTerm  idx="-1"  idxOne="1"  idxTwo="16"  coef="-1.2916"/><qTerm  idx="-1"  idxOne="1"  idxTwo="18"  coef="1.8947"/><qTerm  idx="-1"  idxOne="1"  idxTwo="19"  coef="-1.07e-2"/><qTerm  idx="-1"  idxOne="1"  idxTwo="21"  coef=".4784"/><qTerm  idx="-1"  idxOne="1"  idxTwo="22"  coef="-1.9348"/><qTerm  idx="-1"  idxOne="1"  idxTwo="25"  coef="-1.256"/><qTerm  idx="-1"  idxOne="1"  idxTwo="28"  coef="-.4388"/><qTerm  idx="-1"  idxOne="2"  idxTwo="2"  coef="1.5735"/><qTerm  idx="-1"  idxOne="2"  idxTwo="3"  coef="1.7041"/><qTerm  idx="-1"  idxOne="2"  idxTwo="4"  coef="1.312"/><qTerm  idx="-1"  idxOne="2"  idxTwo="5"  coef="-.5071"/><qTerm  idx="-1"  idxOne="2"  idxTwo="8"  coef=".1288"/><qTerm  idx="-1"  idxOne="2"  idxTwo="9"  coef="-1.9252"/><qTerm  idx="-1"  idxOne="2"  idxTwo="10"  coef="-.1565"/><qTerm  idx="-1"  idxOne="2"  idxTwo="11"  coef=".2041"/><qTerm  idx="-1"  idxOne="2"  idxTwo="12"  coef="-.6481"/><qTerm  idx="-1"  idxOne="2"  idxTwo="15"  coef="-1.3282"/><qTerm  idx="-1"  idxOne="2"  idxTwo="16"  coef="1.3163"/><qTerm  idx="-1"  idxOne="2"  idxTwo="18"  coef="-1.7987"/><qTerm  idx="-1"  idxOne="2"  idxTwo="24"  coef="1.4479"/><qTerm  idx="-1"  idxOne="2"  idxTwo="25"  coef="1.9689"/><qTerm  idx="-1"  idxOne="3"  idxTwo="4"  coef="1.0763"/><qTerm  idx="-1"  idxOne="3"  idxTwo="7"  coef=".6602"/><qTerm  idx="-1"  idxOne="3"  idxTwo="8"  coef=".2285"/><qTerm  idx="-1"  idxOne="3"  idxTwo="11"  coef=".6045"/><qTerm  idx="-1"  idxOne="3"  idxTwo="12"  coef=".6427"/><qTerm  idx="-1"  idxOne="3"  idxTwo="15"  coef="-1.4929"/><qTerm  idx="-1"  idxOne="3"  idxTwo="17"  coef="-9.69e-2"/><qTerm  idx="-1"  idxOne="3"  idxTwo="18"  coef="-.2172"/><qTerm  idx="-1"  idxOne="3"  idxTwo="19"  coef="1.7183"/><qTerm  idx="-1"  idxOne="3"  idxTwo="20"  coef="1.9656"/><qTerm  idx="-1"  idxOne="3"  idxTwo="21"  coef="-.7339"/><qTerm  idx="-1"  idxOne="3"  idxTwo="24"  coef=".6208"/><qTerm  idx="-1"  idxOne="3"  idxTwo="25"  coef="1.9364"/><qTerm  idx="-1"  idxOne="3"  idxTwo="27"  coef="-.5085"/><qTerm  idx="-1"  idxOne="3"  idxTwo="28"  coef="-1.1549"/><qTerm  idx="-1"  idxOne="3"  idxTwo="29"  coef=".1495"/><qTerm  idx="-1"  idxOne="4"  idxTwo="4"  coef="1.0184"/><qTerm  idx="-1"  idxOne="4"  idxTwo="6"  coef="-1.0097"/><qTerm  idx="-1"  idxOne="4"  idxTwo="7"  coef="-1.9263"/><qTerm  idx="-1"  idxOne="4"  idxTwo="11"  coef="1.1131"/><qTerm  idx="-1"  idxOne="4"  idxTwo="12"  coef="-1.4706"/><qTerm  idx="-1"  idxOne="4"  idxTwo="14"  coef="1.543"/><qTerm  idx="-1"  idxOne="4"  idxTwo="19"  coef=".9031"/><qTerm  idx="-1"  idxOne="4"  idxTwo="20"  coef="-8.46e-2"/><qTerm  idx="-1"  idxOne="4"  idxTwo="22"  coef="1.4332"/><qTerm  idx="-1"  idxOne="4"  idxTwo="23"  coef="5.54e-2"/><qTerm  idx="-1"  idxOne="4"  idxTwo="27"  coef=".2067"/><qTerm  idx="-1"  idxOne="4"  idxTwo="28"  coef="-1.4916"/><qTerm  idx="-1"  idxOne="5"  idxTwo="8"  coef="-1.6386"/><qTerm  idx="-1"  idxOne="5"  idxTwo="9"  coef="-1.7251"/><qTerm  idx="-1"  idxOne="5"  idxTwo="11"  coef="-1.1548"/><qTerm  idx="-1"  idxOne="5"  idxTwo="13"  coef="-3.58e-2"/><qTerm  idx="-1"  idxOne="5"  idxTwo="14"  coef="1.5604"/><qTerm  idx="-1"  idxOne="5"  idxTwo="15"  coef="1.7567"/><qTerm  idx="-1"  idxOne="5"  idxTwo="16"  coef="1.6659"/><qTerm  idx="-1"  idxOne="5"  idxTwo="20"  coef="-1.9706"/><qTerm  idx="-1"  idxOne="5"  idxTwo="21"  coef="-.5165"/><qTerm  idx="-1"  idxOne="5"  idxTwo="24"  coef=".3999"/><qTerm  idx="-1"  idxOne="5"  idxTwo="26"  coef="-1.0866"/><qTerm  idx="-1"  idxOne="5"  idxTwo="27"  coef="1.6759"/><qTerm  idx="-1"  idxOne="6"  idxTwo="6"  coef="1.1228"/><qTerm  idx="-1"  idxOne="6"  idxTwo="7"  coef="-.6794"/><qTerm  idx="-1"  idxOne="6"  idxTwo="9"  coef="1.2157"/><qTerm  idx="-1"  idxOne="6"  idxTwo="13"  coef="1.1036"/><qTerm  idx="-1"  idxOne="6"  idxTwo="16"  coef="-1.5837"/><qTerm  idx="-1"  idxOne="6"  idxTwo="20"  coef=".8092"/><qTerm  idx="-1"  idxOne="6"  idxTwo="22"  coef="-.744"/><qTerm  idx="-1"  idxOne="6"  idxTwo="23"  coef="-2.25e-2"/><qTerm  idx="-1"  idxOne="6"  idxTwo="24"  coef="-.5478"/><qTerm  idx="-1"  idxOne="6"  idxTwo="26"  coef=".364"/><qTerm  idx="-1"  idxOne="6"  idxTwo="28"  coef="-.3513"/><qTerm  idx="-1"  idxOne="6"  idxTwo="29"  coef="-.2287"/><qTerm  idx="-1"  idxOne="7"  idxTwo="10"  coef="-1.7683"/><qTerm  idx="-1"  idxOne="7"  idxTwo="12"  coef="1.1355"/><qTerm  idx="-1"  idxOne="7"  idxTwo="13"  coef="1.1382"/><qTerm  idx="-1"  idxOne="7"  idxTwo="16"  coef="1.1281"/><qTerm  idx="-1"  idxOne="7"  idxTwo="18"  coef="-.7589"/><qTerm  idx="-1"  idxOne="7"  idxTwo="20"  coef="1.1133"/><qTerm  idx="-1"  idxOne="7"  idxTwo="21"  coef="-1.4471"/><qTerm  idx="-1"  idxOne="7"  idxTwo="22"  coef=".5168"/><qTerm  idx="-1"  idxOne="7"  idxTwo="24"  coef="-1.3092"/><qTerm  idx="-1"  idxOne="7"  idxTwo="25"  coef=".7453"/><qTerm  idx="-1"  idxOne="7"  idxTwo="27"  coef=".481"/><qTerm  idx="-1"  idxOne="8"  idxTwo="8"  coef="-1.8944"/><qTerm  idx="-1"  idxOne="8"  idxTwo="10"  coef="-1.6149"/><qTerm  idx="-1"  idxOne="8"  idxTwo="11"  coef="1.3016"/><qTerm  idx="-1"  idxOne="8"  idxTwo="12"  coef="1.7269"/><qTerm  idx="-1"  idxOne="8"  idxTwo="13"  coef="1.5477"/><qTerm  idx="-1"  idxOne="8"  idxTwo="14"  coef="-1.5746"/><qTerm  idx="-1"  idxOne="8"  idxTwo="15"  coef="-1.2962"/><qTerm  idx="-1"  idxOne="8"  idxTwo="17"  coef=".4046"/><qTerm  idx="-1"  idxOne="8"  idxTwo="18"  coef=".3236"/><qTerm  idx="-1"  idxOne="8"  idxTwo="21"  coef="-1.6062"/><qTerm  idx="-1"  idxOne="8"  idxTwo="22"  coef="-1.688"/><qTerm  idx="-1"  idxOne="8"  idxTwo="23"  coef="1.578"/><qTerm  idx="-1"  idxOne="8"  idxTwo="26"  coef=".3125"/><qTerm  idx="-1"  idxOne="8"  idxTwo="27"  coef="4.18e-2"/><qTerm  idx="-1"  idxOne="9"  idxTwo="9"  coef="-.7964"/><qTerm  idx="-1"  idxOne="9"  idxTwo="11"  coef="-1.8629"/><qTerm  idx="-1"  idxOne="9"  idxTwo="13"  coef="-1.6591"/><qTerm  idx="-1"  idxOne="9"  idxTwo="14"  coef="-.3074"/><qTerm  idx="-1"  idxOne="9"  idxTwo="18"  coef="1.7751"/><qTerm  idx="-1"  idxOne="9"  idxTwo="20"  coef="1.9133"/><qTerm  idx="-1"  idxOne="9"  idxTwo="22"  coef="-.4271"/><qTerm  idx="-1"  idxOne="9"  idxTwo="23"  coef="-1.3381"/><qTerm  idx="-1"  idxOne="9"  idxTwo="24"  coef="-.8011"/><qTerm  idx="-1"  idxOne="9"  idxTwo="25"  coef=".4086"/><qTerm  idx="-1"  idxOne="9"  idxTwo="27"  coef="-1.8651"/><qTerm  idx="-1"  idxOne="9"  idxTwo="28"  coef="1.7635"/><qTerm  idx="-1"  idxOne="10"  idxTwo="10"  coef="-9.4e-3"/><qTerm  idx="-1"  idxOne="10"  idxTwo="11"  coef="1.9851"/><qTerm  idx="-1"  idxOne="10"  idxTwo="12"  coef="-1.0442"/><qTerm  idx="-1"  idxOne="10"  idxTwo="13"  coef="-.8612"/><qTerm  idx="-1"  idxOne="10"  idxTwo="15"  coef="-1.8209"/><qTerm  idx="-1"  idxOne="10"  idxTwo="24"  coef="-.4008"/><qTerm  idx="-1"  idxOne="10"  idxTwo="26"  coef="-.8088"/><qTerm  idx="-1"  idxOne="10"  idxTwo="27"  coef="1.6024"/><qTerm  idx="-1"  idxOne="11"  idxTwo="11"  coef="-.6129"/><qTerm  idx="-1"  idxOne="11"  idxTwo="12"  coef="-1.3662"/><qTerm  idx="-1"  idxOne="11"  idxTwo="13"  coef="-.9735"/><qTerm  idx="-1"  idxOne="11"  idxTwo="14"  coef="1.9501"/><qTerm  idx="-1"  idxOne="11"  idxTwo="16"  coef="-.9877"/><qTerm  idx="-1"  idxOne="11"  idxTwo="18"  coef=".2499"/><qTerm  idx="-1"  idxOne="11"  idxTwo="19"  coef=".6541"/><qTerm  idx="-1"  idxOne="11"  idxTwo="20"  coef="-.2594"/><qTerm  idx="-1"  idxOne="11"  idxTwo="22"  coef="1.1196"/><qTerm  idx="-1"  idxOne="11"  idxTwo="24"  coef="1.8626"/><qTerm  idx="-1"  idxOne="11"  idxTwo="26"  coef="-1.9685"/><qTerm  idx="-1"  idxOne="12"  idxTwo="14"  coef="-.8708"/><qTerm  idx="-1"  idxOne="12"  idxTwo="15"  coef="-1.6048"/><qTerm  idx="-1"  idxOne="12"  idxTwo="16"  coef="-1.2024"/><qTerm  idx="-1"  idxOne="12"  idxTwo="18"  coef="-1.2301"/><qTerm  idx="-1"  idxOne="12"  idxTwo="22"  coef="-.9502"/><qTerm  idx="-1"  idxOne="12"  idxTwo="24"  coef="-.7984"/><qTerm  idx="-1"  idxOne="12"  idxTwo="26"  coef="-.4954"/><qTerm  idx="-1"  idxOne="12"  idxTwo="27"  coef=".5513"/><qTerm  idx="-1"  idxOne="12"  idxTwo="28"  coef="-1.9016"/><qTerm  idx="-1"  idxOne="12"  idxTwo="29"  coef="1.8979"/><qTerm  idx="-1"  idxOne="13"  idxTwo="14"  coef="-1.7428"/><qTerm  idx="-1"  idxOne="13"  idxTwo="16"  coef="1.1939"/><qTerm  idx="-1"  idxOne="13"  idxTwo="17"  coef="1.21e-2"/><qTerm  idx="-1"  idxOne="13"  idxTwo="18"  coef="-1.8305"/><qTerm  idx="-1"  idxOne="13"  idxTwo="19"  coef=".2749"/><qTerm  idx="-1"  idxOne="13"  idxTwo="20"  coef=".5119"/><qTerm  idx="-1"  idxOne="13"  idxTwo="22"  coef="1.9335"/><qTerm  idx="-1"  idxOne="13"  idxTwo="23"  coef="1.3202"/><qTerm  idx="-1"  idxOne="13"  idxTwo="27"  coef=".7873"/><qTerm  idx="-1"  idxOne="14"  idxTwo="14"  coef=".8503"/><qTerm  idx="-1"  idxOne="14"  idxTwo="16"  coef=".5658"/><qTerm  idx="-1"  idxOne="14"  idxTwo="19"  coef="1.0177"/><qTerm  idx="-1"  idxOne="14"  idxTwo="20"  coef="-.3274"/><qTerm  idx="-1"  idxOne="14"  idxTwo="21"  coef="-.1809"/><qTerm  idx="-1"  idxOne="14"  idxTwo="25"  coef=".7447"/><qTerm  idx="-1"  idxOne="14"  idxTwo="26"  coef="-1.039"/><qTerm  idx="-1"  idxOne="15"  idxTwo="15"  coef="1.2644"/><qTerm  idx="-1"  idxOne="15"  idxTwo="16"  coef="-1.2102"/><qTerm  idx="-1"  idxOne="15"  idxTwo="19"  coef=".8225"/><qTerm  idx="-1"  idxOne="15"  idxTwo="22"  coef="-1.8025"/><qTerm  idx="-1"  idxOne="15"  idxTwo="24"  coef="-1.9232"/><qTerm  idx="-1"  idxOne="15"  idxTwo="28"  coef="-.2848"/><qTerm  idx="-1"  idxOne="16"  idxTwo="20"  coef="1.781"/><qTerm  idx="-1"  idxOne="16"  idxTwo="21"  coef="1.3278"/><qTerm  idx="-1"  idxOne="16"  idxTwo="23"  coef=".1982"/><qTerm  idx="-1"  idxOne="16"  idxTwo="26"  coef=".6639"/><qTerm  idx="-1"  idxOne="16"  idxTwo="28"  coef="-.345"/><qTerm  idx="-1"  idxOne="16"  idxTwo="29"  coef="-5.02e-2"/><qTerm  idx="-1"  idxOne="17"  idxTwo="17"  coef="-.7879"/><qTerm  idx="-1"  idxOne="17"  idxTwo="19"  coef=".1329"/><qTerm  idx="-1"  idxOne="17"  idxTwo="20"  coef="1.1236"/><qTerm  idx="-1"  idxOne="17"  idxTwo="22"  coef="-1.6779"/><qTerm  idx="-1"  idxOne="17"  idxTwo="24"  coef=".9415"/><qTerm  idx="-1"  idxOne="17"  idxTwo="25"  coef="-1.1569"/><qTerm  idx="-1"  idxOne="17"  idxTwo="26"  coef="9.e-2"/><qTerm  idx="-1"  idxOne="17"  idxTwo="28"  coef="-.982"/><qTerm  idx="-1"  idxOne="17"  idxTwo="29"  coef="-.51"/><qTerm  idx="-1"  idxOne="18"  idxTwo="19"  coef="-1.1315"/><qTerm  idx="-1"  idxOne="18"  idxTwo="21"  coef="-1.4186"/><qTerm  idx="-1"  idxOne="18"  idxTwo="23"  coef="-.9249"/><qTerm  idx="-1"  idxOne="18"  idxTwo="26"  coef=".111"/><qTerm  idx="-1"  idxOne="18"  idxTwo="27"  coef="1.4451"/><qTerm  idx="-1"  idxOne="19"  idxTwo="20"  coef="-1.871"/><qTerm  idx="-1"  idxOne="19"  idxTwo="25"  coef="-1.3535"/><qTerm  idx="-1"  idxOne="19"  idxTwo="27"  coef="-.8108"/><qTerm  idx="-1"  idxOne="19"  idxTwo="28"  coef="-1.3445"/><qTerm  idx="-1"  idxOne="20"  idxTwo="21"  coef="1.9259"/><qTerm  idx="-1"  idxOne="20"  idxTwo="22"  coef="1.5699"/><qTerm  idx="-1"  idxOne="20"  idxTwo="24"  coef=".2759"/><qTerm  idx="-1"  idxOne="20"  idxTwo="25"  coef=".1699"/><qTerm  idx="-1"  idxOne="20"  idxTwo="26"  coef="1.9019"/><qTerm  idx="-1"  idxOne="20"  idxTwo="28"  coef="2.68e-2"/><qTerm  idx="-1"  idxOne="21"  idxTwo="21"  coef=".5591"/><qTerm  idx="-1"  idxOne="21"  idxTwo="23"  coef=".5538"/><qTerm  idx="-1"  idxOne="21"  idxTwo="28"  coef=".2523"/><qTerm  idx="-1"  idxOne="21"  idxTwo="29"  coef="1.4511"/><qTerm  idx="-1"  idxOne="22"  idxTwo="23"  coef=".8429"/><qTerm  idx="-1"  idxOne="22"  idxTwo="24"  coef="-1.6622"/><qTerm  idx="-1"  idxOne="22"  idxTwo="26"  coef="-.2925"/><qTerm  idx="-1"  idxOne="22"  idxTwo="28"  coef="1.0258"/><qTerm  idx="-1"  idxOne="23"  idxTwo="24"  coef=".3998"/><qTerm  idx="-1"  idxOne="23"  idxTwo="25"  coef="-.1266"/><qTerm  idx="-1"  idxOne="23"  idxTwo="29"  coef="1.7787"/><qTerm  idx="-1"  idxOne="25"  idxTwo="25"  coef="-.414"/><qTerm  idx="-1"  idxOne="25"  idxTwo="26"  coef="-1.3494"/><qTerm  idx="-1"  idxOne="25"  idxTwo="28"  coef="1.347"/><qTerm  idx="-1"  idxOne="26"  idxTwo="28"  coef="-1.7108"/><qTerm  idx="-1"  idxOne="26"  idxTwo="29"  coef="-1.0704"/><qTerm  idx="-1"  idxOne="27"  idxTwo="28"  coef="-1.8917"/></quadraticCoefficients></instanceData></osil>
